p cnf 999 614
129 0
188 0
213 0
245 0
291 0
312 0
328 0
344 0
415 0
421 0
456 0
534 0
599 0
619 0
632 0
643 0
677 0
711 0
748 0
757 0
772 0
849 0
864 0
878 0
885 0
963 0
-121 0
-122 0
-123 0
-124 0
-125 0
-126 0
-127 0
-128 0
-181 0
-182 0
-183 0
-184 0
-185 0
-186 0
-187 0
-189 0
-211 0
-212 0
-214 0
-215 0
-216 0
-217 0
-218 0
-219 0
-241 0
-242 0
-243 0
-244 0
-246 0
-247 0
-248 0
-249 0
-292 0
-293 0
-294 0
-295 0
-296 0
-297 0
-298 0
-299 0
-311 0
-313 0
-314 0
-315 0
-316 0
-317 0
-318 0
-319 0
-321 0
-322 0
-323 0
-324 0
-325 0
-326 0
-327 0
-329 0
-341 0
-342 0
-343 0
-345 0
-346 0
-347 0
-348 0
-349 0
-411 0
-412 0
-413 0
-414 0
-416 0
-417 0
-418 0
-419 0
-422 0
-423 0
-424 0
-425 0
-426 0
-427 0
-428 0
-429 0
-451 0
-452 0
-453 0
-454 0
-455 0
-457 0
-458 0
-459 0
-531 0
-532 0
-533 0
-535 0
-536 0
-537 0
-538 0
-539 0
-591 0
-592 0
-593 0
-594 0
-595 0
-596 0
-597 0
-598 0
-611 0
-612 0
-613 0
-614 0
-615 0
-616 0
-617 0
-618 0
-631 0
-633 0
-634 0
-635 0
-636 0
-637 0
-638 0
-639 0
-641 0
-642 0
-644 0
-645 0
-646 0
-647 0
-648 0
-649 0
-671 0
-672 0
-673 0
-674 0
-675 0
-676 0
-678 0
-679 0
-712 0
-713 0
-714 0
-715 0
-716 0
-717 0
-718 0
-719 0
-741 0
-742 0
-743 0
-744 0
-745 0
-746 0
-747 0
-749 0
-751 0
-752 0
-753 0
-754 0
-755 0
-756 0
-758 0
-759 0
-771 0
-773 0
-774 0
-775 0
-776 0
-777 0
-778 0
-779 0
-841 0
-842 0
-843 0
-844 0
-845 0
-846 0
-847 0
-848 0
-861 0
-862 0
-863 0
-865 0
-866 0
-867 0
-868 0
-869 0
-871 0
-872 0
-873 0
-874 0
-875 0
-876 0
-877 0
-879 0
-881 0
-882 0
-883 0
-884 0
-886 0
-887 0
-888 0
-889 0
-961 0
-962 0
-964 0
-965 0
-966 0
-967 0
-968 0
-969 0
-112 0
-132 0
-222 0
-232 0
-332 0
-113 0
-133 0
-223 0
-233 0
-333 0
-118 0
-138 0
-228 0
-238 0
-338 0
-119 0
-139 0
-229 0
-239 0
-339 0
-144 0
-154 0
-164 0
-254 0
-264 0
-354 0
-364 0
-145 0
-155 0
-165 0
-255 0
-265 0
-355 0
-365 0
-171 0
-191 0
-271 0
-281 0
-371 0
-381 0
-391 0
-178 0
-198 0
-278 0
-288 0
-378 0
-388 0
-398 0
-431 0
-511 0
-521 0
-621 0
-432 0
-512 0
-522 0
-622 0
-434 0
-514 0
-524 0
-624 0
-435 0
-515 0
-525 0
-625 0
-439 0
-519 0
-529 0
-629 0
-443 0
-463 0
-543 0
-553 0
-563 0
-653 0
-663 0
-446 0
-466 0
-546 0
-556 0
-566 0
-656 0
-666 0
-477 0
-487 0
-497 0
-577 0
-587 0
-687 0
-697 0
-479 0
-489 0
-499 0
-579 0
-589 0
-689 0
-699 0
-721 0
-731 0
-811 0
-821 0
-831 0
-911 0
-921 0
-931 0
-763 0
-853 0
-943 0
-953 0
-764 0
-854 0
-944 0
-954 0
-767 0
-857 0
-947 0
-957 0
-768 0
-858 0
-948 0
-958 0
-769 0
-859 0
-949 0
-959 0
-782 0
-792 0
-892 0
-972 0
-982 0
-992 0
-785 0
-795 0
-895 0
-975 0
-985 0
-995 0
-788 0
-798 0
-898 0
-978 0
-988 0
-998 0
-148 0
-158 0
-168 0
-149 0
-159 0
-169 0
-179 0
-199 0
-221 0
-231 0
-251 0
-261 0
-253 0
-263 0
-273 0
-283 0
-225 0
-235 0
-275 0
-285 0
-352 0
-362 0
-372 0
-382 0
-392 0
-334 0
-374 0
-384 0
-394 0
-358 0
-368 0
-441 0
-461 0
-471 0
-481 0
-491 0
-445 0
-465 0
-475 0
-485 0
-495 0
-436 0
-476 0
-486 0
-496 0
-544 0
-554 0
-564 0
-574 0
-584 0
-549 0
-559 0
-569 0
-652 0
-662 0
-682 0
-692 0
-623 0
-683 0
-693 0
-627 0
-657 0
-667 0
-659 0
-669 0
-761 0
-781 0
-791 0
-722 0
-732 0
-762 0
-727 0
-737 0
-787 0
-797 0
-728 0
-738 0
-814 0
-824 0
-834 0
-894 0
-815 0
-825 0
-835 0
-855 0
-818 0
-828 0
-838 0
-819 0
-829 0
-839 0
-899 0
-913 0
-923 0
-933 0
-973 0
-983 0
-993 0
-111 0
-812 0
-912 0
-513 0
-813 0
-115 0
-915 0
-919 0
-528 0
-628 0
-928 0
-729 0
-929 0
-832 0
-932 0
-134 0
-234 0
-734 0
-934 0
-143 0
-444 0
-545 0
-945 0
-448 0
-548 0
-449 0
-156 0
-256 0
-356 0
-856 0
-956 0
-157 0
-257 0
-357 0
-557 0
-163 0
-363 0
-464 0
-664 0
-172 0
-272 0
-472 0
-572 0
-177 0
-277 0
-377 0
-977 0
-478 0
-578 0
-385 0
-585 0
-685 0
-488 0
-588 0
-688 0
-691 0
-891 0
-991 0
-399 0
-799 0
-999 0
626 0
654 0
469 0
851 0
-462 0
-467 0
-468 0
-651 0
-655 0
-658 0
-852 0
-516 0
-526 0
-941 0
-951 0
-684 0
-694 0
-686 0
-696 0
-226 0
-726 0
-826 0
-926 0
-151 0
-351 0
-551 0
-269 0
-369 0
681 0
822 0
-823 0
-827 0
-571 0
-581 0
-922 0
-661 0
-981 0
971 0
-974 0
-976 0
-979 0
784 0
-783 0
-786 0
-789 0
-794 0
-984 0
-994 0
-724 0
-284 0
-484 0
989 0
739 0
-733 0
-735 0
-736 0
-986 0
-987 0
-939 0
-289 0
-389 0
197 0
-192 0
-193 0
-194 0
-195 0
-196 0
-287 0
-387 0
-397 0
-117 0
-137 0
-147 0
-167 0
-897 0
-997 0
282 0
492 0
494 0